11
2147483647 81 64 45 80 80 34 24 29 20 86 
81 2147483647 74 77 20 69 11 87 66 88 3 
64 74 2147483647 36 90 44 51 45 45 3 92 
45 77 36 2147483647 8 66 8 43 60 58 90 
80 20 90 8 2147483647 59 9 10 12 73 52 
80 69 44 66 59 2147483647 68 33 32 76 29 
34 11 51 8 9 68 2147483647 95 88 97 55 
24 87 45 43 10 33 95 2147483647 72 63 41 
29 66 45 60 12 32 88 72 2147483647 88 66 
20 88 3 58 73 76 97 63 88 2147483647 13 
86 3 92 90 52 29 55 41 66 13 2147483647 
